     Program PWSCF v.7.1 starts on 17Jul2024 at 10:53:52

     Waiting for input...
     Reading input from standard input

     Current dimensions of program PWSCF are:
     Max number of different atomic species (ntypx) = 10
     Max number of k-points (npk) =  40000
     Max angular momentum in pseudopotentials (lmaxx) =  4

     K-points division:     npool     =       2
     R & G space division:  proc/nbgrp/npool/nimage =      16
     Subspace diagonalization in iterative solution of the eigenvalue problem:
     a serial algorithm will be used

     Using Slab Decomposition

     bravais-lattice index     =            2
     lattice parameter (alat)  =      10.2631  a.u.
     unit-cell volume          =     270.2564 (a.u.)^3
     number of atoms/cell      =            2
     number of atomic types    =            1
     number of electrons       =         8.00
     number of Kohn-Sham states=            4
     kinetic-energy cutoff     =      60.0000  Ry
     charge density cutoff     =     240.0000  Ry
     scf convergence threshold =      1.0E-06
     mixing beta               =       0.7000
     number of iterations used =            8  plain     mixing
     energy convergence thresh.=      1.0E-04
     force convergence thresh. =      1.0E-03
     press convergence thresh. =      5.0E-01
     Exchange-correlation=  SLA  PZ   NOGX NOGC
                           (   1   1   0   0   0   0   0)
     nstep                     =           50

     celldm(1)=  10.263103  celldm(2)=   0.000000  celldm(3)=   0.000000
     celldm(4)=   0.000000  celldm(5)=   0.000000  celldm(6)=   0.000000

     crystal axes: (cart. coord. in units of alat)
               a(1) = (  -0.500000   0.000000   0.500000 )
               a(2) = (   0.000000   0.500000   0.500000 )
               a(3) = (  -0.500000   0.500000   0.000000 )

     reciprocal axes: (cart. coord. in units 2 pi/alat)
               b(1) = ( -1.000000 -1.000000  1.000000 )
               b(2) = (  1.000000  1.000000  1.000000 )
               b(3) = ( -1.000000  1.000000 -1.000000 )

     PseudoPot. # 1 for Si read from file:
     ./Si.pz-vbc.UPF
     MD5 check sum: 6dfa03ddd5817404712e03e4d12deb78
     Pseudo is Norm-conserving, Zval =  4.0
     Generated by new atomic code, or converted to UPF format
     Using radial grid of  431 points,  2 beta functions with:
                l(1) =   0
                l(2) =   1

     atomic species   valence    mass     pseudopotential
        Si             4.00    28.08500     Si( 1.00)

     48 Sym. Ops., with inversion, found (24 have fractional translation)

   Cartesian axes

     site n.     atom                  positions (alat units)
         1           Si  tau(   1) = (   0.0000000   0.0000000   0.0000000  )
         2           Si  tau(   2) = (  -0.2500000   0.2500000   0.2500000  )

     number of k points=    10
                       cart. coord. in units 2pi/alat
        k(    1) = (  -0.1250000   0.1250000   0.1250000), wk =   0.0625000
        k(    2) = (  -0.3750000   0.3750000  -0.1250000), wk =   0.1875000
        k(    3) = (   0.3750000  -0.3750000   0.6250000), wk =   0.1875000
        k(    4) = (   0.1250000  -0.1250000   0.3750000), wk =   0.1875000
        k(    5) = (  -0.1250000   0.6250000   0.1250000), wk =   0.1875000
        k(    6) = (   0.6250000  -0.1250000   0.8750000), wk =   0.3750000
        k(    7) = (   0.3750000   0.1250000   0.6250000), wk =   0.3750000
        k(    8) = (  -0.1250000  -0.8750000   0.1250000), wk =   0.1875000
        k(    9) = (  -0.3750000   0.3750000   0.3750000), wk =   0.0625000
        k(   10) = (   0.3750000  -0.3750000   1.1250000), wk =   0.1875000

     Initial potential from superposition of free atoms

     starting charge       7.9990, renormalised to       8.0000
     Starting wfcs are    8 randomized atomic wfcs

     Self-consistent Calculation

     iteration #  1     ecut=    60.00 Ry     beta= 0.70
     Davidson diagonalization with overlap
     ethr =  1.00E-02,  avg # of iterations =  2.0

     Threshold (ethr) on eigenvalues was too large:
     Diagonalizing with lowered threshold

     Davidson diagonalization with overlap
     ethr =  6.71E-04,  avg # of iterations =  1.1

     total energy              =     -15.84966418 Ry
     estimated scf accuracy    <       0.05913830 Ry

[...]

     End of self-consistent calculation

          k =-0.1250 0.1250 0.1250 (  2112 PWs)   bands (ev):

    -5.6835   4.4417   5.7491   5.7491

[...]

          k = 0.3750-0.3750 0.6250 (  2115 PWs)   bands (ev):

[...]

     highest occupied level (ev):     5.7491

!    total energy              =     -15.85321617 Ry
     estimated scf accuracy    <       0.00000009 Ry

     The total energy is the sum of the following terms:
     one-electron contribution =       4.64514653 Ry
     hartree contribution      =       1.09449270 Ry
     xc contribution           =      -4.79700482 Ry
     ewald contribution        =     -16.79585058 Ry

     convergence has been achieved in   5 iterations

     Forces acting on atoms (cartesian axes, Ry/au):

     atom    1 type  1   force =    -0.00000000   -0.00000000   -0.00000000
     atom    2 type  1   force =     0.00000000    0.00000000    0.00000000

     Total force =     0.000000     Total SCF correction =     0.000000

     Computing stress (Cartesian axis) and pressure

          total   stress  (Ry/bohr**3)                   (kbar)     P=      -15.03
  -0.00010216  -0.00000000  -0.00000000          -15.03       -0.00       -0.00
  -0.00000000  -0.00010216   0.00000000           -0.00      -15.03        0.00
  -0.00000000   0.00000000  -0.00010216           -0.00        0.00      -15.03

     BFGS Geometry Optimization
     Energy error            =      0.0E+00 Ry
     Gradient error          =      8.2E-33 Ry/Bohr
     Cell gradient error     =      1.5E+01 kbar

     number of scf cycles    =   1
     number of bfgs steps    =   0

     enthalpy           new  =     -15.8532161691 Ry

     new trust radius        =       0.0083970276 bohr
     new conv_thr            =       0.0000010000 Ry

     new unit-cell volume =    268.19106 a.u.^3 (    39.74182 Ang^3 )
     density =      2.34696 g/cm^3

CELL_PARAMETERS (alat= 10.26310258)
  -0.498723039   0.000000000   0.498723039
  -0.000000000   0.498723039   0.498723039
  -0.498723039   0.498723039   0.000000000

ATOMIC_POSITIONS (crystal)
Si            0.0000000000       -0.0000000000        0.0000000000
Si            0.2500000000        0.2500000000        0.2500000000

     Writing config-only to output data dir ./pwscf.save/
     NEW-OLD atomic charge density approx. for the potential
     extrapolated charge    7.93840, renormalised to    8.00000

[...]

     Energy error            =      1.6E-04 Ry
     Gradient error          =      2.3E-32 Ry/Bohr
     Cell gradient error     =      7.8E+00 kbar

     number of scf cycles    =   2
     number of bfgs steps    =   1

     enthalpy           old  =     -15.8532161691 Ry
     enthalpy           new  =     -15.8533777178 Ry

     CASE: enthalpy          _new < enthalpy          _old

     new trust radius        =       0.0089904816 bohr
     new conv_thr            =       0.0000000100 Ry

     new unit-cell volume =    265.98862 a.u.^3 (    39.41545 Ang^3 )
     density =      2.36639 g/cm^3

[...]

ATOMIC_POSITIONS (crystal)
Si           -0.0000000000       -0.0000000000        0.0000000000
Si            0.2500000000        0.2500000000        0.2500000000

     Writing config-only to output data dir ./pwscf.save/
     NEW-OLD atomic charge density approx. for the potential
     extrapolated charge    7.93377, renormalised to    8.00000

[...]

     Energy error            =      6.4E-05 Ry
     Gradient error          =      6.6E-32 Ry/Bohr
     Cell gradient error     =      4.1E-01 kbar

     bfgs converged in   3 scf cycles and   2 bfgs steps
     (criteria: energy <  1.0E-04 Ry, force <  1.0E-03 Ry/Bohr, cell <  5.0E-01 kbar)

     End of BFGS Geometry Optimization

     Final enthalpy           =     -15.8534412914 Ry

     File ./pwscf.bfgs deleted, as requested
Begin final coordinates
     new unit-cell volume =    265.98862 a.u.^3 (    39.41545 Ang^3 )
     density =      2.36639 g/cm^3

CELL_PARAMETERS (alat= 10.26310258)
  -0.497354081   0.000000000   0.497354081
  -0.000000000   0.497354081   0.497354081
  -0.497354081   0.497354081   0.000000000

ATOMIC_POSITIONS (crystal)
Si           -0.0000000000       -0.0000000000        0.0000000000
Si            0.2500000000        0.2500000000        0.2500000000
End final coordinates

     Writing config-only to output data dir ./pwscf.save/

     Final scf calculation at the relaxed structure.
     The G-vectors are recalculated for the final unit cell
     Results may differ from those at the preceding step.

     Using Slab Decomposition

     bravais-lattice index     =            2
     lattice parameter (alat)  =      10.2631  a.u.
     unit-cell volume          =     265.9886 (a.u.)^3
     number of atoms/cell      =            2
     number of atomic types    =            1
     number of electrons       =         8.00
     number of Kohn-Sham states=            4
     kinetic-energy cutoff     =      60.0000  Ry
     charge density cutoff     =     240.0000  Ry
     scf convergence threshold =      1.0E-08
     mixing beta               =       0.7000
     number of iterations used =            8  plain     mixing
     press convergence thresh. =      5.0E-01
     Exchange-correlation=  SLA  PZ   NOGX NOGC
                           (   1   1   0   0   0   0   0)

     celldm(1)=  10.263103  celldm(2)=   0.000000  celldm(3)=   0.000000
     celldm(4)=   0.000000  celldm(5)=   0.000000  celldm(6)=   0.000000

     crystal axes: (cart. coord. in units of alat)
               a(1) = (  -0.497354   0.000000   0.497354 )
               a(2) = (  -0.000000   0.497354   0.497354 )
               a(3) = (  -0.497354   0.497354   0.000000 )

     reciprocal axes: (cart. coord. in units 2 pi/alat)
               b(1) = ( -1.005320 -1.005320  1.005320 )
               b(2) = (  1.005320  1.005320  1.005320 )
               b(3) = ( -1.005320  1.005320 -1.005320 )

     PseudoPot. # 1 for Si read from file:
     ./Si.pz-vbc.UPF
     MD5 check sum: 6dfa03ddd5817404712e03e4d12deb78
     Pseudo is Norm-conserving, Zval =  4.0
     Generated by new atomic code, or converted to UPF format
     Using radial grid of  431 points,  2 beta functions with:
                l(1) =   0
                l(2) =   1

     atomic species   valence    mass     pseudopotential
        Si             4.00    28.08500     Si( 1.00)

     48 Sym. Ops., with inversion, found (24 have fractional translation)

   Cartesian axes

     site n.     atom                  positions (alat units)
         1           Si  tau(   1) = (  -0.0000000   0.0000000  -0.0000000  )
         2           Si  tau(   2) = (  -0.2486770   0.2486770   0.2486770  )

     number of k points=    10
                       cart. coord. in units 2pi/alat
        k(    1) = (  -0.1256650   0.1256650   0.1256650), wk =   0.0625000
        k(    2) = (  -0.3769950   0.3769950  -0.1256650), wk =   0.1875000
        k(    3) = (   0.3769950  -0.3769950   0.6283250), wk =   0.1875000
        k(    4) = (   0.1256650  -0.1256650   0.3769950), wk =   0.1875000
        k(    5) = (  -0.1256650   0.6283250   0.1256650), wk =   0.1875000
        k(    6) = (   0.6283250  -0.1256650   0.8796550), wk =   0.3750000
        k(    7) = (   0.3769950   0.1256650   0.6283250), wk =   0.3750000
        k(    8) = (  -0.1256650  -0.8796550   0.1256650), wk =   0.1875000
        k(    9) = (  -0.3769950   0.3769950   0.3769950), wk =   0.0625000
        k(   10) = (   0.3769950  -0.3769950   1.1309850), wk =   0.1875000

     Initial potential from superposition of free atoms

     starting charge       7.9990, renormalised to       8.0000
     Starting wfcs are    8 randomized atomic wfcs

     Self-consistent Calculation

[...]

     total energy              =     -15.85344017 Ry
     estimated scf accuracy    <       0.00000008 Ry

     iteration #  6     ecut=    60.00 Ry     beta= 0.70
     Davidson diagonalization with overlap
     ethr =  9.67E-10,  avg # of iterations =  2.1

     End of self-consistent calculation

[...]

          k =-0.3770 0.3770 0.3770 (  2072 PWs)   bands (ev):

[...]

          k = 0.3770-0.3770 1.1310 (  2090 PWs)   bands (ev):

    -2.8538  -0.4685   2.1351   4.2893

     highest occupied level (ev):     5.9094

!    total energy              =     -15.85344018 Ry
     estimated scf accuracy    <          4.4E-10 Ry

     The total energy is the sum of the following terms:
     one-electron contribution =       4.76467467 Ry
     hartree contribution      =       1.08139477 Ry
     xc contribution           =      -4.81430527 Ry
     ewald contribution        =     -16.88520435 Ry

     convergence has been achieved in   6 iterations

     Forces acting on atoms (cartesian axes, Ry/au):

     atom    1 type  1   force =     0.00000000    0.00000000    0.00000000
     atom    2 type  1   force =     0.00000000    0.00000000    0.00000000

     Total force =     0.000000     Total SCF correction =     0.000000

     Computing stress (Cartesian axis) and pressure

          total   stress  (Ry/bohr**3)                   (kbar)     P=       -0.39
  -0.00000266  -0.00000000   0.00000000           -0.39       -0.00        0.00
  -0.00000000  -0.00000266  -0.00000000           -0.00       -0.39       -0.00
  -0.00000000  -0.00000000  -0.00000266           -0.00       -0.00       -0.39

     General routines

     Parallel routines

   This run was terminated on:  10:53:53  17Jul2024

   JOB DONE.