     Program PWSCF v.7.1 starts on  5Jul2024 at 17:17:51

     Waiting for input...
     Reading input from standard input

     Current dimensions of program PWSCF are:
     Max number of different atomic species (ntypx) = 10
     Max number of k-points (npk) =  40000
     Max angular momentum in pseudopotentials (lmaxx) =  4

     Subspace diagonalization in iterative solution of the eigenvalue problem:
     a serial algorithm will be used

     Using Slab Decomposition

     bravais-lattice index     =            4
     lattice parameter (alat)  =       4.6412  a.u.
     unit-cell volume          =     705.0403 (a.u.)^3
     number of atoms/cell      =            2
     number of atomic types    =            1
     number of electrons       =         8.00
     number of Kohn-Sham states=            4
     kinetic-energy cutoff     =      60.0000  Ry
     charge density cutoff     =     240.0000  Ry
     scf convergence threshold =      1.0E-06
     mixing beta               =       0.7000
     number of iterations used =            8  plain     mixing
     energy convergence thresh.=      1.0E-04
     force convergence thresh. =      1.0E-03
     press convergence thresh. =      5.0E-01
     Exchange-correlation=  SLA  PZ   NOGX NOGC
                           (   1   1   0   0   0   0   0)
     nstep                     =           50

     celldm(1)=   4.641167  celldm(2)=   0.000000  celldm(3)=   8.143322
     celldm(4)=   0.000000  celldm(5)=   0.000000  celldm(6)=   0.000000

     crystal axes: (cart. coord. in units of alat)
               a(1) = (   1.000000   0.000000   0.000000 )
               a(2) = (  -0.500000   0.866025   0.000000 )
               a(3) = (   0.000000   0.000000   8.143322 )

     reciprocal axes: (cart. coord. in units 2 pi/alat)
               b(1) = (  1.000000  0.577350  0.000000 )
               b(2) = (  0.000000  1.154701  0.000000 )
               b(3) = (  0.000000  0.000000  0.122800 )

     PseudoPot. # 1 for C  read from file:
     ./C.pz-vbc.UPF
     MD5 check sum: ab53dd623bfeb79c5a7b057bc96eae20
     Pseudo is Norm-conserving, Zval =  4.0
     Generated by new atomic code, or converted to UPF format
     Using radial grid of  269 points,  1 beta functions with:
                l(1) =   0

     atomic species   valence    mass     pseudopotential
        C              4.00    12.01100     C ( 1.00)

     24 Sym. Ops., with inversion, found (12 have fractional translation)

   Cartesian axes

     site n.     atom                  positions (alat units)
         1           C   tau(   1) = (   0.0000000   0.0000000   0.0000000  )
         2           C   tau(   2) = (   0.0000000   0.5773503   0.0000000  )

     number of k points=     6
                       cart. coord. in units 2pi/alat
        k(    1) = (   0.1250000   0.2165064   0.0000000), wk =   0.2500000
        k(    2) = (   0.1250000   0.5051815   0.0000000), wk =   0.5000000
        k(    3) = (   0.1250000  -0.3608439   0.0000000), wk =   0.5000000
        k(    4) = (   0.1250000  -0.0721688   0.0000000), wk =   0.2500000
        k(    5) = (   0.3750000   0.6495191   0.0000000), wk =   0.2500000
        k(    6) = (   0.3750000  -0.2165064   0.0000000), wk =   0.2500000

     Initial potential from superposition of free atoms

     starting charge       7.9999, renormalised to       8.0000

     negative rho (up, down):  1.960E-03 0.000E+00
     Starting wfcs are    8 randomized atomic wfcs

     Self-consistent Calculation

     iteration #  1     ecut=    60.00 Ry     beta= 0.70
     Davidson diagonalization with overlap
     ethr =  1.00E-02,  avg # of iterations =  2.0

     negative rho (up, down):  5.395E-04 0.000E+00

     total energy              =     -22.74827990 Ry
     estimated scf accuracy    <       0.20465410 Ry

[...]

     End of self-consistent calculation

          k = 0.1250 0.2165 0.0000 (  5539 PWs)   bands (ev):

   -20.8934  -9.0648  -8.8530  -7.8619

[...]

     highest occupied level (ev):    -3.6437

!    total energy              =     -22.77645136 Ry
     estimated scf accuracy    <       0.00000011 Ry

     The total energy is the sum of the following terms:
     one-electron contribution =    -226.02742949 Ry
     hartree contribution      =     114.08701375 Ry
     xc contribution           =      -6.93711175 Ry
     ewald contribution        =      96.10107613 Ry

     convergence has been achieved in   5 iterations

     Forces acting on atoms (cartesian axes, Ry/au):

     atom    1 type  1   force =     0.00000000   -0.00000000    0.00000000
     atom    2 type  1   force =    -0.00000000    0.00000000    0.00000000

     Total force =     0.000000     Total SCF correction =     0.000000

     Computing stress (Cartesian axis) and pressure

          total   stress  (Ry/bohr**3)                   (kbar)     P=      -20.15
  -0.00016195  -0.00000000   0.00000000          -23.82       -0.00        0.00
  -0.00000000  -0.00016195   0.00000000           -0.00      -23.82        0.00
   0.00000000  -0.00000000  -0.00008698            0.00       -0.00      -12.79

     BFGS Geometry Optimization
     Energy error            =      0.0E+00 Ry
     Gradient error          =      1.1E-29 Ry/Bohr
     Cell gradient error     =      2.4E+01 kbar

     number of scf cycles    =   1
     number of bfgs steps    =   0

     enthalpy           new  =     -22.7764513573 Ry

     new trust radius        =       0.0215004030 bohr
     new conv_thr            =       0.0000010000 Ry

     new unit-cell volume =    699.34296 a.u.^3 (   103.63193 Ang^3 )
     density =      0.38491 g/cm^3

CELL_PARAMETERS (alat=  4.64116736)
   0.995951356  -0.000000000   0.000000000
  -0.497975678   0.862519175   0.000000000
   0.000000000   0.000000000   8.143322476

ATOMIC_POSITIONS (crystal)
C            -0.0000000000       -0.0000000000        0.0000000000
C             0.3333333333        0.6666666667        0.0000000000

     Writing config-only to output data dir ./pwscf.save/
     NEW-OLD atomic charge density approx. for the potential

     negative rho (up, down):  3.112E-04 0.000E+00
     extrapolated charge    7.93483, renormalised to    8.00000

[...]

     Energy error            =      7.5E-04 Ry
     Gradient error          =      2.4E-30 Ry/Bohr
     Cell gradient error     =      1.5E+01 kbar

[...]

     enthalpy           old  =     -22.7764513573 Ry
     enthalpy           new  =     -22.7771980834 Ry

     CASE: enthalpy          _new < enthalpy          _old

[...]

     number of scf cycles    =   3
     number of bfgs steps    =   2

     enthalpy           old  =     -22.7771980834 Ry
     enthalpy           new  =     -22.7776263780 Ry

     CASE: enthalpy          _new < enthalpy          _old

     new trust radius        =       0.0123419486 bohr
     new conv_thr            =       0.0000000100 Ry

     new unit-cell volume =    689.85713 a.u.^3 (   102.22628 Ang^3 )
     density =      0.39021 g/cm^3

[...]

ATOMIC_POSITIONS (crystal)
C            -0.0000000000       -0.0000000000        0.0000000000
C             0.3333333333        0.6666666667        0.0000000000

     Writing config-only to output data dir ./pwscf.save/
     NEW-OLD atomic charge density approx. for the potential

     negative rho (up, down):  2.111E-04 0.000E+00
     extrapolated charge    7.96236, renormalised to    8.00000

[...]

     Energy error            =      5.7E-05 Ry
     Gradient error          =      1.3E-30 Ry/Bohr
     Cell gradient error     =      9.5E-02 kbar

     bfgs converged in   4 scf cycles and   3 bfgs steps
     (criteria: energy <  1.0E-04 Ry, force <  1.0E-03 Ry/Bohr, cell <  5.0E-01 kbar)

     End of BFGS Geometry Optimization

     Final enthalpy           =     -22.7776830927 Ry

     File ./pwscf.bfgs deleted, as requested
Begin final coordinates
     new unit-cell volume =    689.85713 a.u.^3 (   102.22628 Ang^3 )
     density =      0.39021 g/cm^3

CELL_PARAMETERS (alat=  4.64116736)
   0.989173790   0.000000000   0.000000000
  -0.494586895   0.856649631   0.000000000
   0.000000000   0.000000000   8.143322476

ATOMIC_POSITIONS (crystal)
C            -0.0000000000       -0.0000000000        0.0000000000
C             0.3333333333        0.6666666667        0.0000000000
End final coordinates

     Writing config-only to output data dir ./pwscf.save/

     Final scf calculation at the relaxed structure.
     The G-vectors are recalculated for the final unit cell
     Results may differ from those at the preceding step.

     Using Slab Decomposition

     bravais-lattice index     =            4
     lattice parameter (alat)  =       4.6412  a.u.
     unit-cell volume          =     689.8571 (a.u.)^3
     number of atoms/cell      =            2
     number of atomic types    =            1
     number of electrons       =         8.00
     number of Kohn-Sham states=            4
     kinetic-energy cutoff     =      60.0000  Ry
     charge density cutoff     =     240.0000  Ry
     scf convergence threshold =      1.0E-08
     mixing beta               =       0.7000
     number of iterations used =            8  plain     mixing
     press convergence thresh. =      5.0E-01
     Exchange-correlation=  SLA  PZ   NOGX NOGC
                           (   1   1   0   0   0   0   0)

     celldm(1)=   4.641167  celldm(2)=   0.000000  celldm(3)=   8.143322
     celldm(4)=   0.000000  celldm(5)=   0.000000  celldm(6)=   0.000000

     crystal axes: (cart. coord. in units of alat)
               a(1) = (   0.989174   0.000000   0.000000 )
               a(2) = (  -0.494587   0.856650   0.000000 )
               a(3) = (   0.000000   0.000000   8.143322 )

     reciprocal axes: (cart. coord. in units 2 pi/alat)
               b(1) = (  1.010945  0.583669  0.000000 )
               b(2) = ( -0.000000  1.167338  0.000000 )
               b(3) = (  0.000000  0.000000  0.122800 )

     PseudoPot. # 1 for C  read from file:
     ./C.pz-vbc.UPF
     MD5 check sum: ab53dd623bfeb79c5a7b057bc96eae20
     Pseudo is Norm-conserving, Zval =  4.0
     Generated by new atomic code, or converted to UPF format
     Using radial grid of  269 points,  1 beta functions with:
                l(1) =   0

     atomic species   valence    mass     pseudopotential
        C              4.00    12.01100     C ( 1.00)

     24 Sym. Ops., with inversion, found (12 have fractional translation)

   Cartesian axes

     site n.     atom                  positions (alat units)
         1           C   tau(   1) = (   0.0000000  -0.0000000   0.0000000  )
         2           C   tau(   2) = (   0.0000000   0.5710998   0.0000000  )

     number of k points=     6
                       cart. coord. in units 2pi/alat
        k(    1) = (   0.1263681   0.2188759   0.0000000), wk =   0.2500000
        k(    2) = (   0.1263681   0.5107105   0.0000000), wk =   0.5000000
        k(    3) = (   0.1263681  -0.3647932   0.0000000), wk =   0.5000000
        k(    4) = (   0.1263681  -0.0729586   0.0000000), wk =   0.2500000
        k(    5) = (   0.3791043   0.6566278   0.0000000), wk =   0.2500000
        k(    6) = (   0.3791043  -0.2188759   0.0000000), wk =   0.2500000

     Initial potential from superposition of free atoms

     starting charge       7.9999, renormalised to       8.0000

     negative rho (up, down):  1.913E-03 0.000E+00
     Starting wfcs are    8 randomized atomic wfcs

     Self-consistent Calculation

[...]

     negative rho (up, down):  3.734E-07 0.000E+00

[...]

     total energy              =     -22.77652723 Ry
     estimated scf accuracy    <       0.00000004 Ry

     iteration #  6     ecut=    60.00 Ry     beta= 0.70
     Davidson diagonalization with overlap
     ethr =  4.88E-10,  avg # of iterations =  4.8

     End of self-consistent calculation

[...]

          k = 0.3791-0.2189 0.0000 (  5420 PWs)   bands (ev):

   -18.8426 -13.3148  -8.7577  -6.6101

     highest occupied level (ev):    -3.5546

!    total energy              =     -22.77652732 Ry
     estimated scf accuracy    <          1.2E-09 Ry

     The total energy is the sum of the following terms:
     one-electron contribution =    -231.09993647 Ry
     hartree contribution      =     116.65302864 Ry
     xc contribution           =      -6.98488625 Ry
     ewald contribution        =      98.65526675 Ry

     convergence has been achieved in   6 iterations

     Forces acting on atoms (cartesian axes, Ry/au):

     atom    1 type  1   force =     0.00000000   -0.00000000    0.00000000
     atom    2 type  1   force =    -0.00000000    0.00000000    0.00000000

     Total force =     0.000000     Total SCF correction =     0.000000

     Computing stress (Cartesian axis) and pressure

          total   stress  (Ry/bohr**3)                   (kbar)     P=       -4.74
  -0.00000376   0.00000000  -0.00000000           -0.55        0.00       -0.00
   0.00000000  -0.00000376  -0.00000000            0.00       -0.55       -0.00
  -0.00000000  -0.00000000  -0.00008925           -0.00       -0.00      -13.13

     General routines

     Parallel routines

   This run was terminated on:  17:17:57   5Jul2024

   JOB DONE.