     Program PHONON v.7.1 starts on 18Jul2024 at 11:42:44

     Waiting for input...
     Reading input from standard input

     Reading xml data from directory:

     ./CD.save/

     IMPORTANT: XC functional enforced from input :
     Exchange-correlation= PZ
                           (   1   1   0   0   0   0   0)
     Any further DFT definition will be discarded
     Please, verify this is what you really want

     Using Pencil Decomposition

     Reading collected, re-writing distributed wavefunctions

     Dynamical matrices for ( 4, 4, 4)  uniform grid of q-points
     (   8 q-points):
       N         xq(1)         xq(2)         xq(3)
       1   0.000000000   0.000000000   0.000000000
       2  -0.250000000   0.250000000  -0.250000000
       3   0.500000000  -0.500000000   0.500000000
       4   0.000000000   0.500000000   0.000000000
       5   0.750000000  -0.250000000   0.750000000
       6   0.500000000   0.000000000   0.500000000
       7   0.000000000  -1.000000000   0.000000000
       8  -0.500000000  -1.000000000   0.000000000

     Calculation of q =    0.0000000   0.0000000   0.0000000

     phonons of Carbon diamond on a grid

     bravais-lattice index     =            2
     lattice parameter (alat)  =       6.7407  a.u.
     unit-cell volume          =      76.5678 (a.u.)^3
     number of atoms/cell      =            2
     number of atomic types    =            1
     kinetic-energy cut-off    =      60.0000  Ry
     charge density cut-off    =     400.0000  Ry
     convergence threshold     =      1.0E-12
     beta                      =       0.7000
     number of iterations used =            4
     Exchange-correlation= PZ
                           (   1   1   0   0   0   0   0)

     celldm(1)=    6.74065  celldm(2)=    0.00000  celldm(3)=    0.00000
     celldm(4)=    0.00000  celldm(5)=    0.00000  celldm(6)=    0.00000

     crystal axes: (cart. coord. in units of alat)
               a(1) = ( -0.5000  0.0000  0.5000 )
               a(2) = (  0.0000  0.5000  0.5000 )
               a(3) = ( -0.5000  0.5000  0.0000 )

     reciprocal axes: (cart. coord. in units 2 pi/alat)
               b(1) = ( -1.0000 -1.0000  1.0000 )
               b(2) = (  1.0000  1.0000  1.0000 )
               b(3) = ( -1.0000  1.0000 -1.0000 )

     Atoms inside the unit cell:

     Cartesian axes

     site n.  atom      mass           positions (alat units)
        1     C   12.0110   tau(    1) = (    0.00000    0.00000    0.00000  )
        2     C   12.0110   tau(    2) = (   -0.25000    0.25000    0.25000  )

     Computing dynamical matrix for
                    q = (   0.0000000   0.0000000   0.0000000 )

     49 Sym.Ops. (with q -> -q+G )

     G cutoff =  460.3670  (  10417 G-vectors)     FFT grid: ( 32, 32, 32)
     G cutoff =  276.2202  (   4909 G-vectors)  smooth grid: ( 24, 24, 24)
     number of k points=    29

     PseudoPot. # 1 for C  read from file:
     ./C.pz-vbc.UPF
     MD5 check sum: ab53dd623bfeb79c5a7b057bc96eae20
     Pseudo is Norm-conserving, Zval =  4.0
     Generated by new atomic code, or converted to UPF format
     Using radial grid of  269 points,  1 beta functions with:
                l(1) =   0

     Mode symmetry, O_h (m-3m)  point group:

     Electric field:
     Dielectric constant
     Born effective charges in two ways

     Atomic displacements:
     There are    2 irreducible representations

     Representation     1      3 modes -  To be done

[...]

     Alpha used in Ewald sum =   2.8000

     Electric Fields Calculation

      thresh= 1.000E-02 alpha_mix =  0.700 |ddv_scf|^2 =  1.402E-08

[...]

     End of electric fields calculation

          Dielectric constant in cartesian axis

          (       5.855235309       0.000000000       0.000000000 )
          (       0.000000000       5.855235309       0.000000000 )
          (       0.000000000      -0.000000000       5.855235309 )

          Effective charges (d Force / dE) in cartesian axis without acoustic sum rule applied (asr)

           atom      1   C  Mean Z*:       -0.00683
      Ex  (       -0.00683       -0.00000       -0.00000 )
      Ey  (        0.00000       -0.00683       -0.00000 )
      Ez  (        0.00000        0.00000       -0.00683 )
           atom      2   C  Mean Z*:       -0.00683
      Ex  (       -0.00683       -0.00000        0.00000 )
      Ey  (       -0.00000       -0.00683        0.00000 )
      Ez  (       -0.00000        0.00000       -0.00683 )

          Effective charges Sum: Mean:       -0.01365
             -0.01365       -0.00000        0.00000
             -0.00000       -0.01365        0.00000
             -0.00000       -0.00000       -0.01365

          Effective charges (d Force / dE) in cartesian axis with asr applied:
           atom      1   C  Mean Z*:        0.00000
      E*x (        0.00000        0.00000       -0.00000 )
      E*y (        0.00000        0.00000       -0.00000 )
      E*z (        0.00000       -0.00000        0.00000 )
           atom      2   C  Mean Z*:       -0.00000
      E*x (       -0.00000       -0.00000        0.00000 )
      E*y (       -0.00000       -0.00000        0.00000 )
      E*z (       -0.00000        0.00000       -0.00000 )

     Representation #   1 modes #   1   2   3

     Self-consistent Calculation

[...]

     End of self-consistent calculation

     Convergence has been achieved

[...]

     Number of q in the star =    1
     List of q in the star:
          1   0.000000000   0.000000000   0.000000000

          Dielectric constant in cartesian axis

          (       5.855235309       0.000000000       0.000000000 )
          (       0.000000000       5.855235309       0.000000000 )
          (       0.000000000      -0.000000000       5.855235309 )

          Effective charges (d Force / dE) in cartesian axis without acoustic sum rule applied (asr)

           atom      1   C  Mean Z*:       -0.00683
      Ex  (       -0.00683       -0.00000       -0.00000 )
      Ey  (        0.00000       -0.00683       -0.00000 )
      Ez  (        0.00000        0.00000       -0.00683 )
           atom      2   C  Mean Z*:       -0.00683
      Ex  (       -0.00683       -0.00000        0.00000 )
      Ey  (       -0.00000       -0.00683        0.00000 )
      Ez  (       -0.00000        0.00000       -0.00683 )

          Effective charges Sum: Mean:       -0.01365
             -0.01365       -0.00000        0.00000
             -0.00000       -0.01365        0.00000
             -0.00000       -0.00000       -0.01365

          Effective charges (d Force / dE) in cartesian axis with asr applied:
           atom      1   C  Mean Z*:        0.00000
      E*x (        0.00000        0.00000       -0.00000 )
      E*y (        0.00000        0.00000       -0.00000 )
      E*z (        0.00000       -0.00000        0.00000 )
           atom      2   C  Mean Z*:       -0.00000
      E*x (       -0.00000       -0.00000        0.00000 )
      E*y (       -0.00000       -0.00000        0.00000 )
      E*z (       -0.00000        0.00000       -0.00000 )

          Effective charges (d P / du) in cartesian axis

           atom      1   C
      Px  (       -0.00654        0.00000        0.00000 )
      Py  (        0.00000       -0.00654       -0.00000 )
      Pz  (        0.00000       -0.00000       -0.00654 )
           atom      2   C
      Px  (       -0.00654       -0.00000       -0.00000 )
      Py  (       -0.00000       -0.00654        0.00000 )
      Pz  (        0.00000        0.00000       -0.00654 )

     Diagonalizing the dynamical matrix

     q = (    0.000000000   0.000000000   0.000000000 )

     freq (    1) =       0.343655 [THz] =      11.463099 [cm-1]
     freq (    2) =       0.343655 [THz] =      11.463099 [cm-1]
     freq (    3) =       0.343655 [THz] =      11.463099 [cm-1]
     freq (    4) =      38.186746 [THz] =    1273.772737 [cm-1]
     freq (    5) =      38.186746 [THz] =    1273.772737 [cm-1]
     freq (    6) =      38.186746 [THz] =    1273.772737 [cm-1]

     Mode symmetry, O_h (m-3m)  point group:

     freq (   1-   3) =         11.5  [cm-1]   --> T_1u G_15  G_4- I
     freq (   4-   6) =       1273.8  [cm-1]   --> T_2g G_25' G_5+ R

     Calculation of q =   -0.2500000   0.2500000  -0.2500000
     Subspace diagonalization in iterative solution of the eigenvalue problem:
     a serial algorithm will be used

[...]

     Title:
     phonons of Carbon diamond on a grid

     bravais-lattice index     =            2
     lattice parameter (alat)  =       6.7407  a.u.
     unit-cell volume          =      76.5678 (a.u.)^3
     number of atoms/cell      =            2
     number of atomic types    =            1
     number of electrons       =         8.00
     number of Kohn-Sham states=            4
     kinetic-energy cutoff     =      60.0000  Ry
     charge density cutoff     =     400.0000  Ry
     Exchange-correlation= PZ
                           (   1   1   0   0   0   0   0)

[...]

     atomic species   valence    mass     pseudopotential
        C              4.00    12.01100     C ( 1.00)

     48 Sym. Ops., with inversion, found

[...]

     site n.     atom                  positions (alat units)
         1           C   tau(   1) = (   0.0000000   0.0000000   0.0000000  )
         2           C   tau(   2) = (  -0.2500000   0.2500000   0.2500000  )

     number of k points=   240

     Number of k-points >= 100: set verbosity='high' to print them.

     The potential is recalculated from file :
     ./_ph0/CD.save/charge-density

     Starting wfcs are    8 atomic wfcs

     Band Structure Calculation
     Davidson diagonalization with overlap

     ethr =  1.25E-10,  avg # of iterations =  9.4

     End of band structure calculation

     Number of k-points >= 100: set verbosity='high' to print the bands.

     highest occupied level (ev):    13.1808

     Writing config to output data dir ./_ph0/CD.save/

[...]

      6 Sym.Ops. (no q -> -q+G )

[...]

     Mode symmetry, C_3v (3m)   point group:

[...]

     Representation #   1 mode #   1

[...]

     Mode symmetry, C_3v (3m)   point group:

     freq (   1-   2) =        408.0  [cm-1]   --> E    L_3
     freq (   3-   3) =        672.7  [cm-1]   --> A_1  L_1
     freq (   4-   5) =       1217.6  [cm-1]   --> E    L_3
     freq (   6-   6) =       1288.7  [cm-1]   --> A_1  L_1

[...]

     Mode symmetry, C_4v (4mm)  point group:

[...]

     Mode symmetry, C_4v (4mm)  point group:

     freq (   1-   2) =        523.9  [cm-1]   --> E    G_5 D_5
     freq (   3-   3) =        737.9  [cm-1]   --> A_1  G_1 D_1
     freq (   4-   5) =       1174.4  [cm-1]   --> E    G_5 D_5
     freq (   6-   6) =       1295.9  [cm-1]   --> B_2  G_4 D_2'

[...]

     Mode symmetry, C_s (m)     point group:

[...]

     Mode symmetry, C_s (m)     point group:

     freq (   1-   1) =        678.4  [cm-1]   --> A''
     freq (   2-   2) =        812.0  [cm-1]   --> A'
     freq (   3-   3) =        945.4  [cm-1]   --> A'
     freq (   4-   4) =       1099.6  [cm-1]   --> A''
     freq (   5-   5) =       1128.2  [cm-1]   --> A'
     freq (   6-   6) =       1217.1  [cm-1]   --> A'

[...]

     Mode symmetry, C_2v (mm2)  point group:

[...]

     Representation #   6 mode #   6

[...]

     Mode symmetry, C_2v (mm2)  point group:

     freq (   1-   1) =        619.4  [cm-1]   --> B_1  D_3  S_3
     freq (   2-   2) =        756.0  [cm-1]   --> B_2  D_4  S_4
     freq (   3-   3) =        841.1  [cm-1]   --> A_1  D_1  S_1
     freq (   4-   4) =       1126.0  [cm-1]   --> A_2  D_2  S_2
     freq (   5-   5) =       1197.6  [cm-1]   --> B_2  D_4  S_4
     freq (   6-   6) =       1208.9  [cm-1]   --> A_1  D_1  S_1

[...]

     17 Sym.Ops. (with q -> -q+G )

[...]

     Calculation of q =   -0.5000000  -1.0000000   0.0000000

     Using Pencil Decomposition

     Title:
     phonons of Carbon diamond on a grid

     bravais-lattice index     =            2
     lattice parameter (alat)  =       6.7407  a.u.
     unit-cell volume          =      76.5678 (a.u.)^3
     number of atoms/cell      =            2
     number of atomic types    =            1
     number of electrons       =         8.00
     number of Kohn-Sham states=            4
     kinetic-energy cutoff     =      60.0000  Ry
     charge density cutoff     =     400.0000  Ry
     Exchange-correlation= PZ
                           (   1   1   0   0   0   0   0)

[...]

     atomic species   valence    mass     pseudopotential
        C              4.00    12.01100     C ( 1.00)

     48 Sym. Ops., with inversion, found

[...]

     site n.     atom                  positions (alat units)
         1           C   tau(   1) = (   0.0000000   0.0000000   0.0000000  )
         2           C   tau(   2) = (  -0.2500000   0.2500000   0.2500000  )

     number of k points=   174

     Number of k-points >= 100: set verbosity='high' to print them.

     The potential is recalculated from file :
     ./_ph0/CD.save/charge-density

     Starting wfcs are    8 atomic wfcs

     Band Structure Calculation
     Davidson diagonalization with overlap

     ethr =  1.25E-10,  avg # of iterations =  9.3

     End of band structure calculation

     Number of k-points >= 100: set verbosity='high' to print the bands.

     highest occupied level (ev):    13.1808

     Writing config to output data dir ./_ph0/CD.save/

     phonons of Carbon diamond on a grid

     bravais-lattice index     =            2
     lattice parameter (alat)  =       6.7407  a.u.
     unit-cell volume          =      76.5678 (a.u.)^3
     number of atoms/cell      =            2
     number of atomic types    =            1
     kinetic-energy cut-off    =      60.0000  Ry
     charge density cut-off    =     400.0000  Ry
     convergence threshold     =      1.0E-12
     beta                      =       0.7000
     number of iterations used =            4
     Exchange-correlation= PZ
                           (   1   1   0   0   0   0   0)

     celldm(1)=    6.74065  celldm(2)=    0.00000  celldm(3)=    0.00000
     celldm(4)=    0.00000  celldm(5)=    0.00000  celldm(6)=    0.00000

     crystal axes: (cart. coord. in units of alat)
               a(1) = ( -0.5000  0.0000  0.5000 )
               a(2) = (  0.0000  0.5000  0.5000 )
               a(3) = ( -0.5000  0.5000  0.0000 )

     reciprocal axes: (cart. coord. in units 2 pi/alat)
               b(1) = ( -1.0000 -1.0000  1.0000 )
               b(2) = (  1.0000  1.0000  1.0000 )
               b(3) = ( -1.0000  1.0000 -1.0000 )

     Atoms inside the unit cell:

     Cartesian axes

     site n.  atom      mass           positions (alat units)
        1     C   12.0110   tau(    1) = (    0.00000    0.00000    0.00000  )
        2     C   12.0110   tau(    2) = (   -0.25000    0.25000    0.25000  )

     Computing dynamical matrix for
                    q = (  -0.5000000  -1.0000000   0.0000000 )

      8 Sym.Ops. (no q -> -q+G )

     G cutoff =  460.3670  (  10417 G-vectors)     FFT grid: ( 32, 32, 32)
     G cutoff =  276.2202  (   4909 G-vectors)  smooth grid: ( 24, 24, 24)
     number of k points=   174

     PseudoPot. # 1 for C  read from file:
     ./C.pz-vbc.UPF
     MD5 check sum: ab53dd623bfeb79c5a7b057bc96eae20
     Pseudo is Norm-conserving, Zval =  4.0
     Generated by new atomic code, or converted to UPF format
     Using radial grid of  269 points,  1 beta functions with:
                l(1) =   0

     Atomic displacements:
     There are    3 irreducible representations

[...]

     Representation     3      2 modes -  To be done

     Alpha used in Ewald sum =   2.8000

[...]

     Representation #   3 modes #   5   6

     Self-consistent Calculation

[...]

      thresh= 2.405E-07 alpha_mix =  0.700 |ddv_scf|^2 =  1.185E-14

     End of self-consistent calculation

     Convergence has been achieved

     Number of q in the star =    6
     List of q in the star:
          1  -0.500000000  -1.000000000  -0.000000000
          2  -0.000000000   1.000000000   0.500000000
          3   0.000000000  -1.000000000  -0.500000000
          4   0.500000000   1.000000000   0.000000000
          5  -1.000000000  -0.500000000   0.000000000
          6   0.000000000  -0.500000000  -1.000000000

     Diagonalizing the dynamical matrix

     q = (   -0.500000000  -1.000000000   0.000000000 )

     freq (    1) =      27.208401 [THz] =     907.574577 [cm-1]
     freq (    2) =      27.208401 [THz] =     907.574577 [cm-1]
     freq (    3) =      29.198960 [THz] =     973.972469 [cm-1]
     freq (    4) =      29.198960 [THz] =     973.972469 [cm-1]
     freq (    5) =      33.816462 [THz] =    1127.995755 [cm-1]
     freq (    6) =      33.816462 [THz] =    1127.995755 [cm-1]

     General routines

     Parallel routines

     INITIALIZATION:

     DYNAMICAL MATRIX:

      General routines

   This run was terminated on:  11:46: 6  18Jul2024

   JOB DONE.